% File represents an instance of a Composite Structure problem to be solved by a CP framework
% Created on 2025-03-25 14:06:13.341
T = 58;
n = 25;
m = 40;
edges = [(2, 1),
(6, 7),
(12, 11),
(17, 16),
(22, 21),
(3, 2),
(8, 7),
(13, 12),
(18, 17),
(23, 22),
(4, 3),
(9, 8),
(13, 14),
(19, 18),
(23, 24),
(4, 5),
(9, 10),
(15, 14),
(20, 19),
(25, 24),
(6, 1),
(6, 11),
(11, 16),
(21, 16),
(2, 7),
(12, 7),
(12, 17),
(22, 17),
(8, 3),
(13, 8),
(13, 18),
(23, 18),
(9, 4),
(9, 14),
(19, 14),
(19, 24),
(10, 5),
(15, 10),
(20, 15),
(20, 25)];
counts = [|2, 12, 18, 6,
|2, 12, 20, 6,
|2, 12, 22, 8,
|2, 12, 22, 14,
|2, 12, 20, 12,
|4, 18, 18, 6,
|2, 12, 18, 6,
|4, 12, 22, 10,
|4, 12, 24, 16,
|2, 12, 24, 14,
|4, 14, 16, 4,
|4, 14, 18, 6,
|4, 14, 22, 12,
|4, 12, 22, 12,
|4, 12, 24, 14,
|4, 12, 12, 2,
|4, 12, 16, 4,
|4, 14, 18, 10,
|4, 16, 24, 12,
|4, 16, 24, 14,
|4, 16, 12, 4,
|4, 16, 22, 4,
|6, 16, 24, 10,
|4, 14, 24, 10,
|4, 16, 24, 12|];
